750
150 150
1 105 676
2 105 46
3 105 776
4 105 705
5 105 585
6 105 301
7 105 81
8 105 408
9 104 389
10 104 437
11 104 498
12 104 434
13 104 896
14 103 416
15 103 246
16 103 237
17 103 811
18 102 572
19 102 485
20 102 663
21 102 88
22 102 206
23 102 729
24 102 669
25 101 61
26 101 588
27 101 178
28 101 251
29 101 218
30 101 757
31 101 136
32 101 873
33 101 595
34 101 784
35 101 797
36 101 597
37 101 222
38 101 40
39 100 462
40 100 421
41 100 251
42 100 904
43 100 654
44 100 923
45 99 97
46 99 972
47 99 433
48 99 970
49 99 934
50 99 430
51 98 165
52 98 381
53 98 318
54 98 617
55 98 660
56 98 313
57 98 988
58 98 263
59 98 99
60 98 154
61 98 900
62 97 958
63 97 456
64 97 270
65 97 330
66 97 73
67 97 876
68 97 892
69 96 806
70 96 312
71 96 335
72 96 64
73 96 98
74 96 697
75 96 586
76 96 963
77 96 885
78 96 806
79 96 46
80 95 128
81 95 550
82 95 819
83 95 392
84 95 866
85 95 13
86 95 133
87 95 344
88 95 601
89 95 468
90 95 815
91 94 747
92 94 677
93 94 35
94 94 909
95 94 412
96 94 939
97 93 729
98 93 134
99 93 545
100 93 762
101 93 933
102 93 767
103 93 172
104 92 751
105 92 591
106 92 423
107 92 455
108 92 86
109 92 268
110 92 875
111 92 28
112 92 629
113 92 117
114 92 725
115 92 972
116 92 905
117 91 155
118 91 959
119 91 456
120 91 195
121 91 574
122 91 372
123 91 31
124 90 497
125 90 744
126 90 233
127 90 757
128 90 761
129 90 320
130 90 501
131 90 529
132 89 168
133 89 681
134 89 405
135 89 100
136 89 727
137 89 755
138 89 967
139 89 40
140 89 200
141 89 88
142 89 997
143 89 922
144 88 555
145 88 600
146 88 190
147 88 840
148 88 504
149 88 536
150 88 1
151 88 198
152 88 485
153 87 809
154 87 652
155 87 310
156 87 198
157 87 812
158 87 6
159 87 681
160 87 692
161 87 946
162 87 466
163 87 82
164 86 53
165 86 282
166 86 903
167 86 384
168 86 574
169 85 652
170 85 933
171 85 958
172 85 836
173 85 236
174 85 536
175 84 542
176 84 690
177 84 251
178 84 641
179 84 384
180 84 775
181 84 641
182 84 299
183 84 138
184 83 160
185 83 727
186 83 503
187 83 996
188 83 934
189 83 91
190 83 547
191 83 480
192 83 831
193 83 981
194 83 203
195 82 382
196 82 108
197 82 253
198 82 722
199 82 582
200 82 496
201 82 897
202 82 317
203 82 41
204 82 736
205 81 847
206 81 142
207 81 91
208 81 420
209 81 570
210 81 977
211 81 825
212 81 259
213 81 298
214 80 281
215 80 970
216 80 667
217 79 433
218 79 322
219 79 777
220 79 541
221 79 377
222 79 452
223 79 629
224 79 544
225 79 112
226 79 9
227 78 199
228 78 106
229 78 191
230 78 623
231 78 196
232 78 314
233 78 526
234 78 596
235 77 319
236 77 454
237 77 135
238 77 672
239 77 821
240 77 326
241 77 595
242 77 39
243 77 427
244 76 737
245 76 653
246 76 682
247 76 387
248 76 724
249 76 319
250 75 336
251 75 317
252 75 409
253 75 2
254 75 776
255 75 744
256 75 725
257 75 171
258 75 10
259 74 147
260 74 929
261 74 426
262 74 339
263 74 118
264 74 656
265 74 874
266 74 130
267 74 487
268 74 136
269 73 172
270 73 955
271 73 894
272 73 78
273 73 912
274 73 540
275 73 604
276 73 344
277 73 21
278 73 60
279 73 597
280 73 682
281 72 686
282 72 412
283 72 22
284 72 734
285 72 901
286 72 480
287 72 518
288 72 215
289 71 940
290 71 926
291 71 361
292 71 844
293 71 240
294 71 840
295 70 971
296 70 939
297 70 211
298 70 649
299 70 814
300 70 166
301 70 352
302 70 327
303 70 347
304 70 418
305 70 628
306 69 847
307 69 209
308 69 120
309 69 911
310 69 833
311 69 164
312 69 632
313 69 493
314 68 21
315 68 141
316 68 163
317 68 377
318 68 552
319 67 544
320 67 353
321 67 911
322 67 586
323 67 377
324 67 272
325 67 890
326 67 364
327 67 895
328 66 250
329 66 517
330 66 721
331 66 972
332 66 375
333 66 724
334 66 793
335 66 496
336 66 762
337 66 939
338 66 78
339 66 691
340 66 671
341 66 915
342 65 535
343 65 901
344 65 598
345 65 110
346 65 524
347 65 383
348 65 679
349 65 1000
350 64 680
351 64 683
352 64 512
353 64 642
354 64 411
355 64 143
356 64 327
357 64 974
358 64 949
359 63 828
360 63 334
361 63 79
362 63 221
363 63 253
364 62 892
365 62 563
366 62 400
367 61 242
368 61 244
369 61 103
370 61 290
371 61 856
372 61 488
373 61 872
374 61 816
375 61 813
376 61 55
377 61 460
378 60 460
379 60 452
380 60 795
381 60 16
382 60 884
383 60 336
384 60 450
385 59 905
386 59 861
387 59 819
388 59 568
389 59 149
390 58 669
391 58 760
392 58 55
393 58 891
394 58 3
395 58 418
396 58 244
397 58 91
398 58 243
399 57 942
400 57 370
401 57 14
402 57 471
403 57 997
404 57 13
405 57 506
406 56 866
407 56 280
408 56 168
409 56 832
410 56 543
411 56 165
412 56 876
413 56 764
414 56 574
415 56 453
416 55 103
417 55 617
418 55 14
419 55 694
420 55 680
421 55 548
422 55 378
423 54 823
424 54 557
425 54 905
426 54 405
427 53 931
428 53 204
429 53 904
430 53 302
431 53 650
432 53 29
433 53 636
434 53 692
435 53 903
436 53 69
437 52 869
438 52 984
439 52 809
440 52 576
441 52 938
442 52 674
443 52 928
444 51 270
445 51 244
446 51 305
447 51 423
448 51 736
449 51 733
450 51 742
451 51 86
452 51 151
453 50 4
454 50 775
455 50 284
456 50 485
457 50 670
458 50 870
459 50 120
460 50 190
461 50 368
462 49 562
463 49 631
464 49 694
465 49 807
466 49 713
467 49 776
468 49 437
469 49 597
470 49 927
471 49 299
472 49 84
473 49 314
474 49 856
475 49 77
476 48 598
477 48 315
478 48 137
479 48 263
480 48 430
481 48 820
482 47 264
483 47 751
484 47 2
485 47 986
486 47 111
487 47 625
488 47 506
489 46 459
490 46 609
491 46 569
492 46 292
493 46 354
494 46 188
495 46 660
496 46 995
497 46 738
498 46 820
499 45 430
500 45 221
501 45 182
502 45 447
503 45 975
504 45 93
505 45 485
506 45 289
507 45 821
508 45 895
509 45 4
510 45 172
511 45 221
512 44 869
513 44 724
514 44 557
515 44 10
516 44 172
517 44 295
518 44 989
519 43 878
520 43 906
521 43 636
522 43 577
523 43 934
524 43 684
525 42 227
526 42 447
527 42 413
528 42 973
529 42 126
530 42 462
531 42 769
532 42 407
533 42 848
534 42 892
535 42 355
536 42 627
537 42 276
538 41 366
539 41 275
540 41 44
541 41 154
542 41 404
543 41 204
544 41 348
545 41 372
546 41 60
547 40 321
548 40 864
549 40 714
550 40 129
551 40 892
552 40 978
553 40 47
554 40 583
555 40 15
556 40 704
557 39 539
558 39 582
559 39 281
560 39 256
561 39 887
562 39 611
563 38 689
564 38 535
565 38 644
566 38 840
567 38 841
568 38 678
569 38 402
570 38 103
571 37 950
572 37 84
573 37 15
574 37 18
575 37 376
576 37 473
577 37 502
578 37 513
579 36 378
580 36 137
581 36 665
582 36 976
583 36 101
584 36 24
585 36 699
586 35 198
587 35 893
588 35 640
589 35 827
590 35 478
591 35 337
592 34 339
593 34 342
594 34 239
595 34 235
596 34 132
597 34 987
598 34 29
599 34 770
600 34 722
601 33 757
602 33 127
603 33 577
604 33 592
605 33 308
606 33 977
607 33 739
608 33 487
609 33 63
610 33 436
611 33 28
612 32 314
613 32 51
614 32 864
615 32 470
616 32 662
617 31 653
618 31 372
619 31 646
620 31 660
621 31 942
622 31 33
623 31 239
624 31 735
625 31 441
626 31 242
627 30 598
628 30 491
629 30 218
630 30 721
631 30 433
632 30 728
633 30 750
634 30 679
635 30 48
636 30 805
637 30 927
638 29 889
639 29 692
640 29 157
641 29 2
642 29 485
643 28 70
644 28 963
645 28 77
646 28 522
647 28 585
648 27 174
649 27 995
650 27 150
651 27 892
652 27 130
653 27 193
654 27 471
655 27 464
656 27 493
657 27 173
658 27 796
659 26 505
660 26 769
661 26 871
662 26 292
663 26 418
664 26 448
665 25 282
666 25 35
667 25 261
668 25 304
669 25 861
670 24 572
671 24 60
672 24 511
673 24 963
674 24 158
675 24 838
676 24 18
677 24 925
678 24 627
679 23 958
680 23 776
681 23 789
682 23 148
683 23 549
684 23 834
685 23 963
686 22 810
687 22 951
688 22 353
689 22 576
690 22 411
691 22 324
692 22 663
693 22 692
694 22 56
695 22 491
696 22 781
697 21 708
698 21 395
699 21 129
700 21 340
701 20 546
702 20 414
703 20 586
704 20 905
705 20 768
706 20 756
707 20 385
708 20 35
709 20 96
710 19 199
711 19 213
712 19 828
713 19 831
714 19 224
715 19 453
716 19 535
717 19 112
718 19 923
719 18 176
720 18 970
721 18 157
722 18 542
723 18 501
724 18 876
725 18 952
726 18 756
727 18 198
728 18 268
729 18 125
730 17 55
731 17 828
732 17 783
733 17 752
734 17 807
735 16 59
736 16 841
737 16 360
738 16 110
739 16 88
740 15 849
741 15 783
742 15 799
743 15 413
744 15 114
745 15 16
746 15 572
747 15 548
748 15 982
749 15 697
750 15 338
